0 30 
1 30 
2 30 
3 31 
4 30 
5 30 
6 29 
7 28 
8 29 
9 30 
10 29 
11 29 
12 27 
13 25 
14 24 
15 23 
16 22 
17 23 
18 22 
19 19 
20 20 
21 18 
22 17 
23 19 
24 19 
25 17 
26 16 
27 15 
28 15 
29 15 
30 13 
31 13 
32 12 
33 12 
34 11 
35 11 
36 10 
37 10 
38 10 
39 9 
40 9 
41 9 
42 8 
43 8 
44 7 
45 6 
46 4 
47 3 
48 2 
49 1 
50 0 
51 0 

